20
1 0 1
2 0 3
2 1 3
3 0 1
5 0 3
5 3 6
5 4 7
6 2 1
7 4 10
8 7 4
9 4 3
9 5 8
10 7 3
11 4 3
11 8 9
12 4 8
12 5 3
12 10 10
13 7 4
13 9 5
14 6 9
14 9 3
14 11 6
15 0 7
15 1 10
15 6 10
15 7 7
15 11 10
15 12 2
16 1 8
16 2 9
16 3 9
16 4 2
16 7 4
16 12 5
16 13 7
17 4 7
17 5 2
17 6 2
17 15 8
18 1 4
18 2 4
18 10 8
19 1 5
19 6 2
19 7 6
19 9 2
19 10 2
19 18 2
